2
4
40
1 1.3 1.55 1.75 2.1
12 43 6 34 8 24 40 7 10 11 31 9 43 46 29 36 7 15 47 16 38 5 17 10 28 16 29 39 7 20 37 15 37 14 21 23 25 6 19 35 30 10 34 39 43 10 18 40 24 8 43 24 25 11 18 19 43 18 13 5 41 34 37 36 28 7 49 37 10 29 14 41 31 44 44 8 39 24 49 23 15 45 17 11 49 6 8 26 45 45 41 28 17 29 34 5 6 5 29 38 16 27 38 46 34 46 5 38 32 21 20 26 10 20 34 22 23 37 6 20 13 25 7 25 10 46 42 22 7 10 15 44 10 17 41 22 36 34 48 8 15 12 6 27 20 5 15 49 16 38 10 47 11 24 46 49 42 48 41 11 